data/dzn/R108.dzn
k = 12;
b = 6;
AtomicConstraints =  [|
2, 7|
	3, 7|];
DisjunctiveConstraints =  [|3, 4, 3, 2|
	10, 9, 10, 8|];
SoftAtomicConstraints =  [|
3, 2|
4, 3|
6, 5|
7, 6|
10, 8|
9, 10|
12, 11|];
DirectSuccessors =  [];
